c 
c U(n,d) graph
c graph gen seed     : 446
c number of vertices : 70
c max number of edges: 2415
c Euclidean distance : 0.600000
c data structure     : dense
c
c           Graph Stats
c number of vertices  : 70
c nonisolated vertices: 70
c number of edges     : 1265
c edge density        : 0.523810
c max degree          : 63
c avg degree          : 36.14
c min degree          : 20
p col 70 1265
e 1 4
e 1 7
e 1 8
e 1 9
e 1 10
e 1 13
e 1 14
e 1 15
e 1 17
e 1 18
e 1 20
e 1 24
e 1 25
e 1 26
e 1 28
e 1 32
e 1 33
e 1 34
e 1 36
e 1 39
e 1 40
e 1 44
e 1 45
e 1 47
e 1 48
e 1 49
e 1 50
e 1 52
e 1 53
e 1 54
e 1 55
e 1 57
e 1 58
e 1 59
e 1 61
e 1 62
e 1 69
e 2 3
e 2 5
e 2 6
e 2 8
e 2 9
e 2 10
e 2 11
e 2 12
e 2 13
e 2 14
e 2 16
e 2 18
e 2 19
e 2 20
e 2 21
e 2 22
e 2 23
e 2 24
e 2 25
e 2 26
e 2 27
e 2 28
e 2 30
e 2 31
e 2 33
e 2 35
e 2 38
e 2 39
e 2 41
e 2 42
e 2 43
e 2 45
e 2 46
e 2 50
e 2 52
e 2 55
e 2 56
e 2 57
e 2 58
e 2 60
e 2 63
e 2 64
e 2 65
e 2 66
e 2 67
e 2 68
e 2 70
e 3 5
e 3 8
e 3 9
e 3 11
e 3 12
e 3 13
e 3 14
e 3 16
e 3 18
e 3 19
e 3 22
e 3 23
e 3 24
e 3 26
e 3 30
e 3 35
e 3 39
e 3 42
e 3 45
e 3 55
e 3 56
e 3 58
e 3 63
e 3 64
e 3 65
e 3 66
e 3 68
e 4 7
e 4 10
e 4 13
e 4 15
e 4 17
e 4 20
e 4 25
e 4 28
e 4 33
e 4 34
e 4 37
e 4 40
e 4 44
e 4 47
e 4 48
e 4 49
e 4 50
e 4 52
e 4 54
e 4 55
e 4 57
e 4 58
e 4 59
e 4 61
e 4 62
e 4 69
e 5 6
e 5 8
e 5 9
e 5 10
e 5 11
e 5 12
e 5 13
e 5 14
e 5 16
e 5 18
e 5 19
e 5 20
e 5 21
e 5 22
e 5 23
e 5 24
e 5 25
e 5 26
e 5 28
e 5 30
e 5 31
e 5 32
e 5 33
e 5 35
e 5 39
e 5 42
e 5 43
e 5 45
e 5 46
e 5 50
e 5 52
e 5 55
e 5 56
e 5 57
e 5 58
e 5 61
e 5 62
e 5 63
e 5 64
e 5 65
e 5 66
e 5 67
e 5 68
e 5 70
e 6 10
e 6 11
e 6 13
e 6 16
e 6 20
e 6 21
e 6 23
e 6 24
e 6 25
e 6 27
e 6 29
e 6 30
e 6 31
e 6 37
e 6 38
e 6 41
e 6 43
e 6 46
e 6 50
e 6 51
e 6 52
e 6 56
e 6 57
e 6 58
e 6 59
e 6 60
e 6 66
e 6 67
e 6 68
e 6 70
e 7 8
e 7 9
e 7 10
e 7 12
e 7 13
e 7 14
e 7 15
e 7 17
e 7 18
e 7 20
e 7 24
e 7 25
e 7 26
e 7 28
e 7 32
e 7 33
e 7 34
e 7 36
e 7 39
e 7 40
e 7 44
e 7 45
e 7 47
e 7 48
e 7 49
e 7 50
e 7 52
e 7 53
e 7 54
e 7 55
e 7 57
e 7 58
e 7 59
e 7 61
e 7 62
e 7 64
e 7 69
e 8 9
e 8 12
e 8 13
e 8 14
e 8 15
e 8 18
e 8 19
e 8 22
e 8 24
e 8 26
e 8 28
e 8 30
e 8 32
e 8 33
e 8 35
e 8 36
e 8 39
e 8 42
e 8 44
e 8 45
e 8 52
e 8 53
e 8 55
e 8 56
e 8 58
e 8 61
e 8 62
e 8 63
e 8 64
e 8 65
e 8 66
e 8 68
e 9 10
e 9 11
e 9 12
e 9 13
e 9 14
e 9 15
e 9 16
e 9 18
e 9 19
e 9 20
e 9 22
e 9 24
e 9 25
e 9 26
e 9 28
e 9 30
e 9 32
e 9 33
e 9 34
e 9 36
e 9 39
e 9 42
e 9 44
e 9 45
e 9 46
e 9 47
e 9 49
e 9 50
e 9 52
e 9 53
e 9 55
e 9 56
e 9 57
e 9 58
e 9 59
e 9 61
e 9 62
e 9 63
e 9 64
e 9 65
e 9 66
e 9 68
e 9 69
e 10 11
e 10 13
e 10 15
e 10 16
e 10 17
e 10 18
e 10 19
e 10 20
e 10 21
e 10 24
e 10 25
e 10 27
e 10 28
e 10 29
e 10 31
e 10 33
e 10 34
e 10 37
e 10 38
e 10 40
e 10 41
e 10 43
e 10 44
e 10 46
e 10 47
e 10 48
e 10 49
e 10 50
e 10 52
e 10 53
e 10 54
e 10 55
e 10 56
e 10 57
e 10 58
e 10 59
e 10 60
e 10 61
e 10 62
e 10 67
e 10 69
e 11 13
e 11 16
e 11 18
e 11 19
e 11 20
e 11 21
e 11 22
e 11 23
e 11 24
e 11 25
e 11 27
e 11 29
e 11 30
e 11 31
e 11 35
e 11 37
e 11 38
e 11 41
e 11 43
e 11 46
e 11 47
e 11 50
e 11 51
e 11 52
e 11 55
e 11 56
e 11 57
e 11 58
e 11 59
e 11 60
e 11 63
e 11 65
e 11 66
e 11 67
e 11 68
e 11 70
e 12 13
e 12 14
e 12 15
e 12 18
e 12 19
e 12 22
e 12 24
e 12 26
e 12 28
e 12 32
e 12 33
e 12 35
e 12 36
e 12 39
e 12 42
e 12 44
e 12 45
e 12 52
e 12 53
e 12 55
e 12 56
e 12 61
e 12 63
e 12 64
e 12 65
e 12 68
e 13 14
e 13 15
e 13 16
e 13 17
e 13 18
e 13 19
e 13 20
e 13 21
e 13 23
e 13 24
e 13 25
e 13 26
e 13 27
e 13 28
e 13 29
e 13 31
e 13 32
e 13 33
e 13 34
e 13 36
e 13 37
e 13 38
e 13 39
e 13 40
e 13 41
e 13 43
e 13 44
e 13 45
e 13 46
e 13 47
e 13 48
e 13 49
e 13 50
e 13 52
e 13 53
e 13 54
e 13 55
e 13 56
e 13 57
e 13 58
e 13 59
e 13 60
e 13 61
e 13 62
e 13 64
e 13 66
e 13 67
e 13 69
e 13 70
e 14 15
e 14 18
e 14 19
e 14 22
e 14 24
e 14 26
e 14 28
e 14 32
e 14 33
e 14 36
e 14 39
e 14 42
e 14 44
e 14 45
e 14 49
e 14 50
e 14 52
e 14 53
e 14 55
e 14 56
e 14 61
e 14 62
e 14 63
e 14 64
e 14 65
e 15 17
e 15 18
e 15 20
e 15 24
e 15 25
e 15 26
e 15 28
e 15 32
e 15 33
e 15 34
e 15 36
e 15 39
e 15 40
e 15 44
e 15 45
e 15 47
e 15 48
e 15 49
e 15 50
e 15 52
e 15 53
e 15 54
e 15 55
e 15 58
e 15 59
e 15 61
e 15 62
e 15 64
e 15 69
e 16 19
e 16 20
e 16 21
e 16 22
e 16 23
e 16 24
e 16 27
e 16 29
e 16 30
e 16 31
e 16 35
e 16 38
e 16 41
e 16 42
e 16 43
e 16 46
e 16 51
e 16 52
e 16 55
e 16 56
e 16 57
e 16 58
e 16 60
e 16 63
e 16 65
e 16 66
e 16 67
e 16 68
e 16 70
e 17 20
e 17 24
e 17 25
e 17 27
e 17 28
e 17 33
e 17 34
e 17 37
e 17 40
e 17 44
e 17 47
e 17 48
e 17 49
e 17 50
e 17 52
e 17 54
e 17 55
e 17 57
e 17 58
e 17 59
e 17 61
e 17 62
e 17 69
e 18 19
e 18 20
e 18 22
e 18 24
e 18 25
e 18 26
e 18 28
e 18 30
e 18 32
e 18 33
e 18 35
e 18 36
e 18 39
e 18 42
e 18 44
e 18 45
e 18 47
e 18 49
e 18 50
e 18 52
e 18 53
e 18 55
e 18 56
e 18 57
e 18 58
e 18 61
e 18 62
e 18 63
e 18 64
e 18 65
e 18 66
e 18 68
e 18 69
e 19 20
e 19 22
e 19 23
e 19 24
e 19 26
e 19 28
e 19 30
e 19 32
e 19 33
e 19 35
e 19 36
e 19 39
e 19 42
e 19 45
e 19 46
e 19 50
e 19 52
e 19 55
e 19 56
e 19 58
e 19 61
e 19 63
e 19 64
e 19 65
e 19 66
e 19 68
e 20 21
e 20 23
e 20 24
e 20 25
e 20 27
e 20 28
e 20 29
e 20 31
e 20 33
e 20 34
e 20 37
e 20 38
e 20 40
e 20 41
e 20 43
e 20 46
e 20 47
e 20 48
e 20 49
e 20 50
e 20 51
e 20 52
e 20 54
e 20 55
e 20 56
e 20 57
e 20 58
e 20 59
e 20 60
e 20 61
e 20 62
e 20 66
e 20 67
e 20 69
e 20 70
e 21 23
e 21 24
e 21 25
e 21 27
e 21 29
e 21 30
e 21 31
e 21 37
e 21 38
e 21 41
e 21 43
e 21 46
e 21 50
e 21 51
e 21 52
e 21 55
e 21 56
e 21 57
e 21 58
e 21 59
e 21 60
e 21 66
e 21 67
e 21 68
e 21 70
e 22 23
e 22 24
e 22 26
e 22 30
e 22 35
e 22 42
e 22 45
e 22 55
e 22 56
e 22 63
e 22 64
e 22 65
e 22 66
e 22 68
e 23 24
e 23 27
e 23 29
e 23 30
e 23 31
e 23 35
e 23 38
e 23 41
e 23 43
e 23 46
e 23 51
e 23 52
e 23 56
e 23 57
e 23 58
e 23 60
e 23 63
e 23 65
e 23 66
e 23 67
e 23 68
e 23 70
e 24 25
e 24 26
e 24 27
e 24 28
e 24 30
e 24 31
e 24 32
e 24 33
e 24 34
e 24 35
e 24 36
e 24 37
e 24 38
e 24 39
e 24 41
e 24 42
e 24 43
e 24 44
e 24 45
e 24 46
e 24 47
e 24 48
e 24 49
e 24 50
e 24 52
e 24 53
e 24 55
e 24 56
e 24 57
e 24 58
e 24 59
e 24 61
e 24 62
e 24 63
e 24 64
e 24 65
e 24 66
e 24 67
e 24 68
e 24 69
e 24 70
e 25 27
e 25 28
e 25 29
e 25 31
e 25 33
e 25 34
e 25 37
e 25 38
e 25 40
e 25 41
e 25 43
e 25 44
e 25 46
e 25 47
e 25 48
e 25 49
e 25 50
e 25 52
e 25 53
e 25 54
e 25 55
e 25 56
e 25 57
e 25 58
e 25 59
e 25 61
e 25 62
e 25 67
e 25 69
e 26 28
e 26 32
e 26 33
e 26 36
e 26 39
e 26 42
e 26 44
e 26 45
e 26 52
e 26 53
e 26 55
e 26 56
e 26 61
e 26 62
e 26 64
e 26 65
e 27 29
e 27 31
e 27 34
e 27 37
e 27 38
e 27 41
e 27 43
e 27 46
e 27 47
e 27 50
e 27 51
e 27 52
e 27 55
e 27 57
e 27 58
e 27 59
e 27 60
e 27 66
e 27 67
e 27 70
e 28 32
e 28 33
e 28 34
e 28 36
e 28 39
e 28 40
e 28 44
e 28 45
e 28 47
e 28 48
e 28 49
e 28 50
e 28 52
e 28 53
e 28 54
e 28 55
e 28 56
e 28 57
e 28 58
e 28 59
e 28 61
e 28 62
e 28 64
e 28 69
e 29 31
e 29 34
e 29 37
e 29 38
e 29 41
e 29 43
e 29 46
e 29 47
e 29 50
e 29 51
e 29 52
e 29 57
e 29 58
e 29 59
e 29 60
e 29 67
e 29 70
e 30 31
e 30 35
e 30 42
e 30 43
e 30 45
e 30 46
e 30 56
e 30 58
e 30 63
e 30 64
e 30 65
e 30 66
e 30 68
e 30 70
e 31 37
e 31 38
e 31 41
e 31 43
e 31 46
e 31 50
e 31 51
e 31 52
e 31 57
e 31 58
e 31 59
e 31 60
e 31 66
e 31 67
e 31 70
e 32 33
e 32 36
e 32 39
e 32 44
e 32 45
e 32 49
e 32 52
e 32 53
e 32 55
e 32 56
e 32 61
e 32 62
e 32 64
e 32 69
e 33 34
e 33 36
e 33 39
e 33 40
e 33 44
e 33 45
e 33 47
e 33 48
e 33 49
e 33 50
e 33 52
e 33 53
e 33 54
e 33 55
e 33 56
e 33 57
e 33 58
e 33 59
e 33 61
e 33 62
e 33 64
e 33 69
e 34 37
e 34 38
e 34 40
e 34 41
e 34 44
e 34 46
e 34 47
e 34 48
e 34 49
e 34 50
e 34 52
e 34 53
e 34 54
e 34 55
e 34 57
e 34 58
e 34 59
e 34 61
e 34 62
e 34 67
e 34 69
e 35 42
e 35 45
e 35 56
e 35 63
e 35 64
e 35 65
e 35 66
e 35 68
e 36 39
e 36 44
e 36 45
e 36 49
e 36 53
e 36 55
e 36 56
e 36 61
e 36 62
e 36 64
e 36 69
e 37 38
e 37 40
e 37 41
e 37 43
e 37 46
e 37 47
e 37 48
e 37 49
e 37 50
e 37 51
e 37 52
e 37 54
e 37 55
e 37 57
e 37 58
e 37 59
e 37 60
e 37 62
e 37 67
e 37 69
e 37 70
e 38 41
e 38 43
e 38 46
e 38 47
e 38 50
e 38 51
e 38 52
e 38 57
e 38 58
e 38 59
e 38 60
e 38 66
e 38 67
e 38 70
e 39 42
e 39 44
e 39 45
e 39 53
e 39 55
e 39 56
e 39 61
e 39 62
e 39 64
e 40 44
e 40 47
e 40 48
e 40 49
e 40 50
e 40 52
e 40 53
e 40 54
e 40 55
e 40 57
e 40 58
e 40 59
e 40 61
e 40 62
e 40 69
e 41 43
e 41 46
e 41 47
e 41 50
e 41 51
e 41 52
e 41 57
e 41 58
e 41 59
e 41 60
e 41 66
e 41 67
e 41 70
e 42 45
e 42 55
e 42 56
e 42 63
e 42 64
e 42 65
e 42 66
e 42 68
e 43 46
e 43 50
e 43 51
e 43 52
e 43 57
e 43 58
e 43 59
e 43 60
e 43 66
e 43 67
e 43 68
e 43 70
e 44 45
e 44 47
e 44 48
e 44 49
e 44 50
e 44 52
e 44 53
e 44 54
e 44 55
e 44 61
e 44 62
e 44 64
e 44 69
e 45 52
e 45 53
e 45 55
e 45 56
e 45 58
e 45 61
e 45 63
e 45 64
e 45 65
e 45 66
e 45 68
e 46 47
e 46 50
e 46 51
e 46 52
e 46 55
e 46 56
e 46 57
e 46 58
e 46 59
e 46 60
e 46 66
e 46 67
e 46 68
e 46 70
e 47 48
e 47 49
e 47 50
e 47 52
e 47 53
e 47 54
e 47 55
e 47 57
e 47 58
e 47 59
e 47 61
e 47 62
e 47 67
e 47 69
e 48 49
e 48 50
e 48 52
e 48 53
e 48 54
e 48 55
e 48 57
e 48 58
e 48 59
e 48 61
e 48 62
e 48 69
e 49 50
e 49 52
e 49 53
e 49 54
e 49 55
e 49 57
e 49 58
e 49 59
e 49 61
e 49 62
e 49 69
e 50 52
e 50 53
e 50 54
e 50 55
e 50 56
e 50 57
e 50 58
e 50 59
e 50 61
e 50 62
e 50 67
e 50 69
e 51 57
e 51 58
e 51 60
e 51 66
e 51 67
e 51 70
e 52 53
e 52 54
e 52 55
e 52 56
e 52 57
e 52 58
e 52 59
e 52 60
e 52 61
e 52 62
e 52 64
e 52 66
e 52 67
e 52 69
e 52 70
e 53 54
e 53 55
e 53 61
e 53 62
e 53 64
e 53 69
e 54 55
e 54 57
e 54 58
e 54 59
e 54 61
e 54 62
e 54 69
e 55 56
e 55 57
e 55 58
e 55 59
e 55 61
e 55 62
e 55 64
e 55 66
e 55 67
e 55 69
e 56 57
e 56 58
e 56 61
e 56 62
e 56 63
e 56 64
e 56 65
e 56 66
e 56 68
e 56 70
e 57 58
e 57 59
e 57 60
e 57 61
e 57 62
e 57 66
e 57 67
e 57 69
e 57 70
e 58 59
e 58 60
e 58 61
e 58 62
e 58 66
e 58 67
e 58 68
e 58 69
e 58 70
e 59 60
e 59 61
e 59 62
e 59 67
e 59 69
e 60 66
e 60 67
e 60 70
e 61 62
e 61 64
e 61 69
e 62 69
e 63 64
e 63 65
e 63 66
e 63 68
e 64 65
e 64 66
e 64 68
e 65 66
e 65 68
e 66 67
e 66 68
e 66 70
e 67 70
e 68 70
